c turning on binary mode checking
c parsing input formula with 202048 variables and 780980 clauses
c finished parsing, read 2146912 bytes from proof file
c detected empty clause; start verification via backward checking
c 3660 of 780980 clauses in core                            
c 1179 of 86151 lemmas in core using 21022 resolution steps
c 0 RAT lemmas in core; 72 redundant literals in core lemmas
s VERIFIED
c verification time: 0.956 seconds
